NAME : local_11
TYPE : ATSP
DIMENSION : 6
EDGE_WEIGHT_TYPE : EXPLICIT
EDGE_WEIGHT_FORMAT : FULL_MATRIX
EDGE_WEIGHT_SECTION
0 10000000 10000000 640 740 628 
0 0 587 855 10000000 758 
0 587 0 625 10000000 653 
0 855 625 0 10000000 162 
0 10000000 10000000 10000000 0 10000000 
0 10000000 10000000 10000000 10000000 0 
EOF